NAME 
ROWS
 N  OBJ
 L  R0      
 L  R1      
 E  R2      
COLUMNS
    MARKER    'MARKER'                 'INTORG'
    I0(3)     OBJ       -489
    I0(3)     R0        -131
    I0(3)     R1        -842
    I0(3)     R2        35
    I1(3)     OBJ       -552
    I1(3)     R0        -461
    I1(3)     R1        -668
    I1(3)     R2        925
    I2(3)     OBJ       -798
    I2(3)     R0        -285
    I2(3)     R1        -644
    I2(3)     R2        264
    I3(3)     OBJ       -893
    I3(3)     R0        -972
    I3(3)     R1        -965
    I3(3)     R2        657
    I4(3)     OBJ       -63
    I4(3)     R0        -498
    I4(3)     R1        -846
    I4(3)     R2        568
    I5(3)     OBJ       -975
    I5(3)     R0        -956
    I5(3)     R1        -98
    I5(3)     R2        176
    I6(3)     OBJ       -799
    I6(3)     R0        -597
    I6(3)     R1        -81
    I6(3)     R2        341
    I7(3)     OBJ       -378
    I7(3)     R0        -397
    I7(3)     R1        -99
    I7(3)     R2        186
    I8(3)     OBJ       -131
    I8(3)     R0        -531
    I8(3)     R1        -265
    I8(3)     R2        886
    I9(3)     OBJ       -132
    I9(3)     R0        -71
    I9(3)     R1        -725
    I9(3)     R2        403
    I10(3)    OBJ       -607
    I10(3)    R0        -846
    I10(3)    R1        -474
    I10(3)    R2        935
    I11(3)    OBJ       -895
    I11(3)    R0        -20
    I11(3)    R1        -395
    I11(3)    R2        728
    I12(3)    OBJ       -123
    I12(3)    R0        -623
    I12(3)    R1        -185
    I12(3)    R2        70
    I13(3)    OBJ       -178
    I13(3)    R0        -644
    I13(3)    R1        -758
    I13(3)    R2        579
    I14(3)    OBJ       -455
    I14(3)    R0        -913
    I14(3)    R1        -367
    I14(3)    R2        693
    I15(3)    OBJ       -117
    I15(3)    R0        -685
    I15(3)    R1        -683
    I15(3)    R2        916
    I16(3)    OBJ       -253
    I16(3)    R0        -618
    I16(3)    R1        -714
    I16(3)    R2        676
    I17(3)    OBJ       -167
    I17(3)    R0        -711
    I17(3)    R1        -964
    I17(3)    R2        774
    I18(3)    OBJ       -644
    I18(3)    R0        -62
    I18(3)    R1        -79
    I18(3)    R2        14
    I19(3)    OBJ       -375
    I19(3)    R0        -749
    I19(3)    R1        -245
    I19(3)    R2        941
    I20(1)    R2        1
    MARKER    'MARKER'                 'INTEND'
RHS
    RHS1      R0        -5711
    RHS1      R1        -5437
    RHS1      R2        5383
BOUNDS
 UP BND1      I0(3)     1
 UP BND1      I1(3)     1
 UP BND1      I2(3)     1
 UP BND1      I3(3)     1
 UP BND1      I4(3)     1
 UP BND1      I5(3)     1
 UP BND1      I6(3)     1
 UP BND1      I7(3)     1
 UP BND1      I8(3)     1
 UP BND1      I9(3)     1
 UP BND1      I10(3)    1
 UP BND1      I11(3)    1
 UP BND1      I12(3)    1
 UP BND1      I13(3)    1
 UP BND1      I14(3)    1
 UP BND1      I15(3)    1
 UP BND1      I16(3)    1
 UP BND1      I17(3)    1
 UP BND1      I18(3)    1
 UP BND1      I19(3)    1
 LI BND1      I20(1)    0
ENDATA
